c ! encoding i-pc 250
p cnf 521 916
-251 0
101 -252 0
151 -253 0
251 -254 0
251 -255 0
251 -256 0
251 -257 0
-157 -258 0
-231 -258 0
258 -259 0
119 -259 0
231 -260 0
157 -260 0
261 0
262 -263 0
263 -264 0
-157 -264 0
260 264 -265 0
265 -266 0
-119 -266 0
259 266 -267 0
267 -268 0
25 -268 0
-119 -269 0
231 -269 0
269 -271 0
270 -271 0
271 -272 0
-25 -272 0
268 272 -273 0
29 -274 0
-88 -274 0
-95 -274 0
-123 -274 0
275 -277 0
276 -277 0
273 -278 0
274 -278 0
277 -278 0
278 -279 0
190 -279 0
29 -280 0
160 -280 0
281 -282 0
282 -283 0
-160 -283 0
280 283 -284 0
-88 -285 0
-119 -285 0
231 -285 0
284 -287 0
285 -287 0
286 -287 0
287 -288 0
157 -288 0
29 -289 0
-88 -289 0
289 -290 0
160 -290 0
-88 -291 0
29 -291 0
292 -293 0
293 -294 0
-29 -294 0
291 294 -295 0
295 -296 0
-160 -296 0
290 296 -297 0
-231 -298 0
119 -298 0
262 -299 0
299 -300 0
-119 -300 0
298 300 -301 0
301 -302 0
25 -302 0
269 -303 0
-25 -303 0
302 303 -304 0
297 -305 0
304 -305 0
305 -306 0
-157 -306 0
288 306 -307 0
14 -308 0
309 -310 0
310 -311 0
-14 -311 0
308 311 -312 0
307 -313 0
312 -313 0
313 -315 0
314 -315 0
315 -316 0
-190 -316 0
279 316 -317 0
141 -318 0
145 -318 0
317 -320 0
318 -320 0
319 -320 0
320 -321 0
222 -321 0
143 -322 0
323 -324 0
324 -325 0
-143 -325 0
322 325 -326 0
327 -328 0
328 -329 0
145 -329 0
-141 -330 0
-145 -330 0
329 330 -331 0
273 -332 0
331 -332 0
274 -332 0
276 -332 0
332 -333 0
190 -333 0
-88 -334 0
270 -334 0
334 -335 0
29 -335 0
-157 -336 0
88 -336 0
270 -337 0
337 -338 0
-88 -338 0
336 338 -339 0
339 -340 0
-29 -340 0
335 340 -341 0
341 -342 0
-119 -342 0
342 -343 0
286 -343 0
343 -344 0
231 -344 0
25 -345 0
-157 -345 0
295 -346 0
345 -346 0
346 -348 0
347 -348 0
348 -349 0
-231 -349 0
344 349 -350 0
312 -351 0
327 -351 0
351 -352 0
145 -352 0
-123 -353 0
-141 -353 0
353 -354 0
276 -354 0
354 -355 0
-145 -355 0
352 355 -356 0
350 -357 0
356 -357 0
357 -358 0
314 -358 0
358 -359 0
-190 -359 0
333 359 -360 0
326 -361 0
360 -361 0
361 -362 0
275 -362 0
362 -363 0
-222 -363 0
-156 -365 0
-163 -365 0
365 -366 0
138 -366 0
367 -368 0
368 -369 0
163 -369 0
-156 -370 0
-163 -370 0
369 370 -371 0
371 -372 0
-138 -372 0
15 -374 0
-45 -374 0
-66 -374 0
-79 -374 0
196 -374 0
-198 -374 0
210 -374 0
213 -374 0
375 -383 0
376 -383 0
377 -383 0
378 -383 0
379 -383 0
380 -383 0
381 -383 0
382 -383 0
364 -384 0
373 -384 0
383 -384 0
251 -390 0
242 -392 0
251 -395 0
251 -409 0
185 -411 0
251 -412 0
251 -413 0
251 -414 0
-213 -415 0
-242 -415 0
415 -416 0
4 -416 0
417 -418 0
418 -419 0
213 -419 0
-242 -420 0
-213 -420 0
419 420 -421 0
421 -422 0
-4 -422 0
416 422 -423 0
423 -424 0
99 -424 0
213 -425 0
242 -425 0
425 -426 0
-99 -426 0
428 -429 0
429 -430 0
66 -430 0
210 -431 0
-66 -431 0
430 431 -432 0
432 -433 0
45 -433 0
66 -434 0
-210 -434 0
434 -435 0
-45 -435 0
433 435 -436 0
198 -437 0
79 -437 0
438 -439 0
439 -440 0
-79 -440 0
437 440 -441 0
14 -442 0
-44 -442 0
441 -443 0
442 -443 0
443 -444 0
41 -444 0
79 -445 0
198 -445 0
445 -446 0
375 -446 0
276 -446 0
446 -447 0
-41 -447 0
444 447 -448 0
196 -449 0
436 -450 0
448 -450 0
449 -450 0
450 -451 0
27 -451 0
-196 -452 0
113 -452 0
453 -454 0
454 -455 0
-113 -455 0
452 455 -456 0
428 -457 0
457 -458 0
45 -458 0
-210 -459 0
-45 -459 0
458 459 -460 0
66 -461 0
79 -461 0
198 -461 0
375 -462 0
276 -462 0
456 -463 0
460 -463 0
461 -463 0
462 -463 0
463 -464 0
-27 -464 0
466 -467 0
467 -468 0
139 -468 0
-15 -469 0
-139 -469 0
29 -471 0
-88 -471 0
95 -471 0
-119 -471 0
-123 -471 0
141 -471 0
-143 -471 0
145 -471 0
156 -471 0
-157 -471 0
-160 -471 0
163 -471 0
-190 -471 0
-231 -471 0
376 -479 0
472 -479 0
473 -479 0
474 -479 0
475 -479 0
476 -479 0
477 -479 0
478 -479 0
427 -480 0
465 -480 0
470 -480 0
479 -480 0
251 -482 0
251 -485 0
25 -487 0
251 -490 0
251 -496 0
251 -504 0
251 -509 0
-185 -513 0
514 -515 0
251 -516 0
-151 -518 0
-101 -520 0
1 0
2 0
5 0
-6 0
-8 0
-10 0
-11 0
12 0
-13 0
-17 0
-19 0
-21 0
22 0
23 0
26 0
28 0
30 0
31 0
32 0
33 0
34 0
35 0
-39 0
40 0
-43 0
-46 0
-47 0
-50 0
53 0
-59 0
-60 0
62 0
63 0
64 0
67 0
68 0
70 0
71 0
72 0
-73 0
-74 0
76 0
-77 0
80 0
82 0
83 0
85 0
-86 0
-87 0
-90 0
-94 0
98 0
-102 0
-104 0
106 0
-107 0
108 0
-109 0
-110 0
111 0
112 0
-115 0
-117 0
-120 0
125 0
126 0
-127 0
128 0
-130 0
131 0
-132 0
-133 0
-134 0
-135 0
137 0
140 0
-146 0
-147 0
-148 0
-153 0
-154 0
155 0
-161 0
-162 0
164 0
167 0
-168 0
-170 0
-172 0
173 0
174 0
175 0
-177 0
180 0
-181 0
182 0
-184 0
-186 0
189 0
193 0
195 0
-199 0
-200 0
-201 0
-202 0
-203 0
206 0
208 0
209 0
211 0
212 0
218 0
-219 0
220 0
221 0
223 0
-225 0
-228 0
229 0
-230 0
-234 0
-240 0
243 0
-244 0
-247 0
-519 520 0
-517 518 0
36 516 0
-515 517 0
-512 513 0
-248 511 0
-216 511 0
150 511 0
-510 512 0
-508 510 0
-507 508 0
-505 507 0
-503 505 0
-502 503 0
-36 515 0
-501 502 0
-500 501 0
-498 499 0
116 498 0
-207 511 0
-497 498 0
-495 497 0
-494 495 0
-491 492 0
-489 491 0
-487 488 0
214 487 0
-486 488 0
166 485 0
-483 484 0
224 482 0
-480 481 0
-479 480 0
-3 478 0
-477 479 0
227 477 0
-476 479 0
129 476 0
58 475 0
-474 479 0
-472 479 0
-250 471 0
-249 471 0
-245 471 0
-241 471 0
238 471 0
-237 471 0
-235 471 0
-233 471 0
-518 519 0
232 471 0
226 471 0
217 471 0
-197 471 0
192 471 0
-179 471 0
-176 471 0
159 471 0
-158 471 0
149 471 0
144 471 0
142 471 0
136 471 0
-124 471 0
-122 471 0
121 471 0
-121 374 0
213 415 420 0
-213 374 419 425 0
52 472 0
-429 430 0
-210 374 428 431 0
114 374 0
-358 359 0
96 374 0
-92 374 0
-282 283 0
-362 363 0
79 374 440 0
-261 263 282 293 299 310 324 328 337 368 418 429 439 454 457 467 0
-159 374 0
65 374 0
163 365 370 0
-348 349 0
-188 492 0
-56 374 0
-55 374 0
66 374 431 0
-353 354 0
-48 374 0
-467 468 0
37 374 0
-142 374 0
-426 427 0
-302 304 0
-459 460 0
-287 288 0
16 399 496 0
-88 292 336 0
14 276 311 0
-373 384 0
-468 470 0
-370 371 0
84 374 0
176 374 0
-84 471 0
-163 369 471 0
-368 369 0
-367 368 0
29 281 294 340 0
141 327 330 353 0
-293 294 0
-380 383 0
-138 366 0
-418 419 0
-38 471 0
-369 371 0
-274 278 332 0
56 471 0
-333 360 0
-118 374 0
-335 341 0
-364 384 0
-371 372 0
-363 364 0
93 374 0
-361 362 0
-359 360 0
-37 471 0
-268 273 0
-260 265 0
139 469 0
-357 358 0
-356 357 0
-89 374 0
-355 356 0
-365 366 0
75 471 0
-354 355 0
-520 521 0
-352 356 0
-351 352 0
-372 373 0
-347 348 0
-278 279 0
-346 348 0
-345 346 0
-343 344 0
-342 343 0
187 385 0
-399 400 0
-301 302 0
-458 460 0
-457 458 0
-265 266 0
119 266 269 285 300 342 347 471 0
204 471 0
-276 277 332 354 446 462 0
-419 421 0
-190 279 333 0
97 374 0
-427 480 0
-217 374 0
-360 361 0
-272 273 0
-340 341 0
-338 339 0
-269 271 303 0
-511 512 0
95 274 314 0
-295 296 346 0
-75 374 0
-319 320 0
-160 275 280 290 0
-488 489 0
-25 268 286 302 345 487 0
-493 494 0
-318 320 0
-320 321 0
20 405 504 0
42 474 0
-285 287 0
-152 471 0
-484 486 0
-283 284 0
-439 440 0
-332 333 0
-403 404 0
-270 271 334 337 0
-266 267 0
-334 335 0
-27 374 451 0
-329 331 0
45 374 435 459 0
-349 350 0
-157 260 270 288 0
-450 451 0
-264 265 0
103 374 0
-308 312 0
-49 397 0
-290 297 0
-453 454 0
-187 257 471 0
-326 361 0
-404 405 0
-462 463 0
-215 471 0
-273 278 332 0
250 387 0
-473 479 0
157 258 264 270 306 336 345 471 0
-65 471 0
-298 301 0
-456 463 0
160 275 283 296 471 0
-305 306 0
-119 259 298 347 0
-478 479 0
100 374 0
-339 340 0
-144 374 0
-271 272 0
122 397 0
-258 259 0
-306 307 0
-205 323 0
-316 317 0
-350 357 0
-313 315 0
-29 274 280 281 289 291 335 471 0
-141 318 327 471 0
-286 287 343 0
-41 444 0
138 372 471 0
210 428 434 459 0
-259 267 0
-328 329 0
-183 376 0
-16 256 495 0
-231 260 262 269 285 344 0
-262 263 299 0
-78 374 0
-424 427 0
-374 384 0
-321 364 0
-310 311 0
-317 320 0
-325 326 0
-422 423 0
25 272 286 303 0
145 330 355 0
194 471 0
-344 350 0
-281 282 0
183 376 0
231 258 262 298 349 471 0
-307 313 0
-263 264 0
-222 321 0
-322 326 0
-277 278 0
-397 398 0
-169 471 0
-324 325 0
-416 423 0
-51 255 412 0
-14 276 308 442 0
-156 367 471 0
-297 305 0
-300 301 0
-452 456 0
-311 312 0
-275 277 362 0
-323 324 0
-236 502 0
-315 316 0
-53 374 506 0
-331 332 0
-178 382 0
-267 268 0
54 374 0
-337 338 0
-341 342 0
179 374 0
169 374 0
-330 331 0
-279 317 0
-471 480 0
-288 307 0
-289 290 0
222 363 471 0
-291 295 0
-294 295 0
-296 297 0
-9 374 0
-454 455 0
-299 300 0
-455 456 0
-99 424 0
-303 304 0
-314 315 358 0
44 375 442 0
191 471 0
-460 463 0
-304 305 0
215 374 0
-309 310 0
-292 293 0
-145 318 329 352 471 0
-20 254 503 0
-113 452 0
-165 471 0
-312 313 351 0
-246 471 0
-336 339 0
69 374 0
-394 396 0
-136 374 0
-139 374 468 0
-431 432 0
-398 399 0
-386 388 0
152 374 0
158 374 0
-66 430 434 461 0
-69 471 0
-433 436 0
89 471 0
-441 443 0
188 374 0
-96 471 0
-191 374 0
99 392 426 0
-406 407 0
197 374 0
-105 378 0
198 374 438 0
-204 374 0
118 471 0
-407 408 0
-284 287 0
-401 402 0
27 464 0
-506 507 0
-226 374 0
190 316 359 471 0
-378 383 0
-475 479 0
-492 493 0
7 381 0
-232 374 0
-417 418 0
235 374 0
236 374 0
237 374 0
-238 374 0
-327 328 351 0
241 374 0
245 374 0
246 374 0
249 374 0
-143 319 322 0
-388 389 0
-4 416 0
-415 416 0
-44 375 0
-375 383 446 462 0
239 377 0
-377 383 0
-481 483 0
78 471 0
171 379 0
-499 500 0
-79 437 445 461 0
-379 383 0
91 380 0
-381 383 0
-451 465 0
-382 383 0
-383 384 0
-384 385 0
-444 448 0
61 395 490 0
-430 432 0
81 409 509 0
-385 386 0
-387 388 0
38 374 0
-389 391 0
24 390 0
-214 392 0
-391 393 0
-150 392 0
165 392 0
-466 467 0
207 392 0
233 392 0
-242 392 417 425 0
-438 439 0
248 392 0
-432 433 0
-392 393 0
216 397 0
-393 394 0
-396 398 0
-446 447 0
-149 397 0
-280 284 0
-400 401 0
-402 404 0
-194 403 0
-421 422 0
-408 410 0
-95 314 471 0
-410 411 0
92 471 0
-442 443 0
-57 414 0
242 415 417 420 0
-420 421 0
-425 426 0
-428 429 457 0
-45 433 458 0
-192 374 0
-463 464 0
-116 403 413 0
-434 435 0
-435 436 0
-436 450 0
-437 441 0
-440 441 0
-443 444 0
-445 446 0
-123 309 0
-447 448 0
124 374 0
-448 450 0
-449 450 0
196 452 453 0
-461 463 0
-465 480 0
18 473 0
-470 480 0
-405 406 0
9 471 0
-423 424 0
48 471 0
49 471 0
-54 471 0
55 471 0
-93 471 0
-97 471 0
-100 471 0
-103 471 0
-114 471 0
